NAME: selfie_draw
TYPE: ATSP
DIMENSION: 6
EDGE_WEIGHT_TYPE: EXPLICIT
EDGE_WEIGHT_FORMAT: FULL_MATRIX
EDGE_WEIGHT_SECTION
999999 999999 1 2 2 1
999999 999999 3 3 3 2
3 2 999999 999999 3 3
3 1 999999 999999 1 2
2 1 2 3 999999 999999
3 2 1 3 999999 999999
EOF
